Water Network: 10
*******************************************************************************

-------------------------------- Solving with gurobi --------------------------
Gurobi 12.0.1: Set parameter LogToConsole to value 1
  tech:outlev = 1
Set parameter Presolve to value 1
  pre:solve = 1
Set parameter TimeLimit to value 3600
  lim:time = 3600
  alg:start = 1
Set parameter MIPGapAbs to value 1e-06
  mip:gapabs = 1e-06
Set parameter MIPGap to value 1e-09
  mip:gap = 1e-09
Set parameter BarConvTol to value 1e-09
  bar:convtol = 1e-09
  sol:chk:feastol = 1e-05
  sol:chk:feastolrel = 0
Set parameter NumericFocus to value 1
  alg:numericfocus = 1
Set parameter MIPGap to value 1e-09
  mip:gap = 1e-09
  tech:optionfile = gurobiOpt.prm

AMPL MP initial flat model has 1370 variables (0 integer, 0 binary);
Objectives: 1 linear; 
Constraints:  94 linear; 232 quadratic;
Algebraic expressions:  58 div; 116 powconstexp;

AMPL MP final model has 1776 variables (0 integer, 0 binary);
Objectives: 1 linear; 
Constraints:  152 linear; 232 quadratic;
Algebraic expressions:  58 div; 116 powconstexp;


Set parameter InfUnbdInfo to value 1
Gurobi Optimizer version 12.0.1 build v12.0.1rc0 (linux64 - "Debian GNU/Linux 12 (bookworm)")

CPU model: AMD Ryzen Threadripper PRO 5975WX 32-Cores, instruction set [SSE2|AVX|AVX2]
Thread count: 32 physical cores, 64 logical processors, using up to 32 threads

Non-default parameters:
TimeLimit  3600
MIPGap  1e-09
MIPGapAbs  1e-06
BarConvTol  1e-09
InfUnbdInfo  1
NumericFocus  1
Presolve  1

Optimize a model with 152 rows, 1776 columns and 1564 nonzeros
Model fingerprint: 0xfea857f2
Model has 58 general nonlinear constraints (2842 nonlinear terms)
Variable types: 1776 continuous, 0 integer (0 binary)
Coefficient statistics:
  Matrix range     [1e+00, 1e+00]
  Objective range  [4e-01, 2e+02]
  Bounds range     [1e-11, 5e+13]
  RHS range        [3e-04, 4e+02]
Warning: Model contains large bounds
Presolve model has 58 nlconstr
Added 3074 variables to disaggregate expressions.
Presolve removed 0 rows and 348 columns
Presolve time: 0.03s
Presolved: 8446 rows, 4503 columns, 22096 nonzeros
Presolved model has 1450 bilinear constraint(s)
Presolved model has 174 nonlinear constraint(s)

Solving non-convex MINLP

Variable types: 4503 continuous, 0 integer (0 binary)

Root relaxation: objective 3.194227e+03, 1869 iterations, 0.10 seconds (0.02 work units)

    Nodes    |    Current Node    |     Objective Bounds      |     Work
 Expl Unexpl |  Obj  Depth IntInf | Incumbent    BestBd   Gap | It/Node Time

     0     0 3194.22680    0  189          - 3194.22680      -     -    2s
     0     0 3194.22680    0  217          - 3194.22680      -     -    3s
     0     0 3194.84186    0  217          - 3194.84186      -     -    4s
     0     2 3194.84186    0  217          - 3194.84186      -     -   13s
     1     5 3195.70295    1  126          - 3194.84186      -   125   16s
     7    16 3195.70295    3  258          - 3195.70295      -   212   22s
    15    32 3197.00048    4  218          - 3195.70295      -   303   26s
    95   138 3195.70301    7  259          - 3195.70295      -   169   30s
   569   727 3195.70301   11  249          - 3195.70295      -   112   35s
  1716  2180 3195.70301   28  218          - 3195.70295      -   107   41s
  3651  4649 3195.70301  107  215          - 3195.70295      -   110   51s
  5242  5925 3195.70301  156  212          - 3195.70295      -   113   57s
  6946  7168 3195.70301  160  212          - 3195.70295      -   114   64s
  8463  8678 3195.70301  177  217          - 3195.70295      -   120   73s
 10405 10521 3195.70301  267  217          - 3195.70295      -   116   80s
  NLP heuristic elapsed time = 5.00s
 12522 10523 3357.78415   72    0          - 3195.70295      -   111   88s
 12525 10525 3195.70295   35    0          - 3195.70295      -   111   99s
  NLP heuristic elapsed time = 5.02s
  NLP heuristic elapsed time = 10.03s
 12528 10528 3357.74566   14    0          - 3195.70295      -   112  112s
 12531 10530 3195.70301   24    0          - 3195.70295      -   112  150s
  NLP heuristic elapsed time = 5.02s
  NLP heuristic elapsed time = 10.03s
 12532 10530 3357.74566  149    0          - 3195.70295      -   112  167s
 12533 10534 3195.70295   21  271          - 3195.70295      -   112  206s
 12539 10544 3195.70295   23  267          - 3195.70295      -   112  212s
 12547 10557 3195.70295   24  252          - 3195.70295      -   112  215s
 12627 11020 3195.70295   27  243          - 3195.70295      -   112  222s
 13056 11787 3195.70295   34  233          - 3195.70295      -   112  226s
 14008 11515 3195.70295   50  213          - 3195.70295      -   112  247s
 14056 13681 3195.70295   51  232          - 3195.70295      -   112  255s
 16468 14696 3195.70295   67  212          - 3195.70295      -   110  263s
 18831 15436 3195.70295   99  194          - 3195.70295      -   106  270s
 21096 16001 infeasible  144               - 3195.70295      -   103  276s
 22916 16821 3216.48140  170  215          - 3195.70295      -   103  283s
 24873 17843 3225.31522  186  215          - 3195.70295      -   102  290s
 27423 18434 3225.37531  229  208          - 3195.70295      -  98.0  297s
 29576 19822 infeasible  260               - 3195.70295      -  95.9  308s
 32562 20451 3195.70295   40  249          - 3195.70295      -  92.2  327s
 35218 21269 3195.70295   63  211          - 3195.70295      -  90.0  338s
 37952 22002 4891.45811   78  191          - 3195.70295      -  87.5  345s
 40874 22563 5125.76086   97  166          - 3195.70295      -  84.6  353s
 43737 23108 3195.70295   59  216          - 3195.70295      -  82.2  360s
 46162 24480 3195.76773   83  208          - 3195.70295      -  80.8  368s
 48569 26028 3197.89358   99  170          - 3195.70295      -  79.4  379s
 50905 27429 4844.36634  108  183          - 3195.70295      -  78.2  388s
 53396 28932 3242.16520  125  186          - 3195.70295      -  76.9  395s
 56019 30587 3195.70295   75  217          - 3195.70295      -  75.3  402s
 58772 32733 3195.70295   87  194          - 3195.70295      -  73.8  411s
 62046 35064 infeasible  110               - 3195.70295      -  71.7  420s
 65465 37275 infeasible  133               - 3195.70295      -  69.7  429s
 69348 39493 3208.21297  145  198          - 3195.70295      -  67.3  438s
 73248 41994 3197.03873  152  202          - 3195.70295      -  65.2  447s
 77561 44480 3195.70295  172  149          - 3195.70295      -  63.0  457s
 82563 47481 3195.70295  235  153          - 3195.70295      -  60.6  469s
 87870 51029 3196.60597  301  155          - 3195.70295      -  58.1  480s
 93884 54991 3196.60597  394  153          - 3195.70295      -  55.3  491s
 100532 58407 3196.60597  484  153          - 3195.70295      -  52.5  504s
 107470 61796 3196.66724  552  155          - 3195.70295      -  49.9  515s
 114191 64979 3196.60597  600  153          - 3195.70295      -  47.7  524s
 120682 68123 3197.56078  617  161          - 3195.70295      -  45.8  535s
 127402 71112 3197.51439  633  161          - 3195.70295      -  43.9  545s
 134543 74119 3196.60597  648  153          - 3195.70295      -  42.0  555s
